# opt freq ub3lyp/6-31+g(d) geom=connectivity empiricaldispersion=gd3

Title Card Required

0 2
 O                0    3.39470800    0.34429100   -0.41265000
 O                0   -3.28327500   -0.40622500   -0.40431300
 O                0    1.31984800    1.82400900    0.22590800
 O                0   -0.81736500   -1.79155100    0.36908500
 O                0    1.73386900   -1.69051000   -0.25463700
 O                0   -1.27109400    1.70561000   -0.19185900
 Si               0    2.91427500    1.67131500    0.36008500
 Si               0    0.59216000   -2.56589300    0.46699300
 Si               0    3.26097200   -1.25903700   -0.52043000
 Si               0   -2.84392600    1.16799800   -0.32890600
 Si               0   -0.07773000    2.60297800    0.40906700
 Al               0   -2.47821700   -1.59702400    0.49732400
 H               -1    4.13157600   -1.88988100    0.49948000
 H               -1    3.64956900   -1.65339200   -1.88980600
 H               -1    3.56622500    2.83901400   -0.26993300
 H               -1    3.24910400    1.56944000    1.79941700
 H               -1   -0.05121700    3.86361300   -0.36101300
 H               -1   -0.34990000    2.82317100    1.84380800
 H               -1   -3.23710900    1.78521400   -1.61343400
 H               -1   -3.48065300    1.79569200    0.84623500
 H               -1    0.95267200   -2.73151500    1.89374700
 H               -1    0.48618700   -3.87108400   -0.22123000
 H               -1   -2.55942200   -0.95454900    1.98920100
 H               -1   -3.13526400   -3.00618000    0.12953400
 X                0   -0.00197224   -0.19468217    0.21051449

 1 7 2.0 9 2.0
 2 10 2.0 12 1.0
 3 7 2.0 11 2.0
 4 8 2.0 12 1.0
 5 8 2.0 9 2.0
 6 10 1.5 11 2.0
 7 15 1.0 16 1.0
 8 21 1.0 22 1.0
 9 13 1.0 14 1.0
 10 19 1.0 20 1.0
 11 17 1.0 18 1.0
 12 23 1.0 24 1.0
 13
 14
 15
 16
 17
 18
 19
 20
 21
 22
 23
 24

